784 1568
1 2 1
1 29 2
2 3 3
2 30 1
3 4 2
3 31 4
4 5 5
4 32 2
5 6 5
5 33 5
6 7 2
6 34 2
7 8 3
7 35 5
8 9 3
8 36 2
9 10 3
9 37 4
10 11 5
10 38 5
11 12 3
11 39 5
12 13 3
12 40 4
13 14 5
13 41 2
14 15 4
14 42 1
15 16 4
15 43 4
16 17 2
16 44 4
17 18 2
17 45 5
18 19 3
18 46 2
19 20 3
19 47 2
20 21 4
20 48 1
21 22 1
21 49 5
22 23 1
22 50 1
23 24 5
23 51 1
24 25 2
24 52 3
25 26 1
25 53 2
26 27 2
26 54 1
27 28 2
27 55 4
28 56 2
29 30 3
29 57 5
30 31 2
30 58 1
31 32 2
31 59 2
32 33 1
32 60 1
33 34 4
33 61 3
34 35 2
34 62 3
35 36 5
35 63 5
36 37 1
36 64 1
37 38 4
37 65 1
38 39 5
38 66 5
39 40 5
39 67 2
40 41 4
40 68 1
41 42 5
41 69 2
42 43 4
42 70 2
43 44 4
43 71 4
44 45 1
44 72 5
45 46 4
45 73 1
46 47 3
46 74 3
47 48 4
47 75 2
48 49 4
48 76 5
49 50 3
49 77 4
50 51 2
50 78 2
51 52 4
51 79 5
52 53 4
52 80 1
53 54 1
53 81 3
54 55 2
54 82 4
55 56 2
55 83 5
56 84 5
57 58 3
57 85 4
58 59 1
58 86 5
59 60 5
59 87 4
60 61 5
60 88 4
61 62 3
61 89 5
62 63 4
62 90 2
63 64 5
63 91 1
64 65 4
64 92 4
65 66 5
65 93 2
66 67 3
66 94 3
67 68 3
67 95 5
68 69 3
68 96 4
69 70 2
69 97 3
70 71 2
70 98 3
71 72 1
71 99 2
72 73 5
72 100 4
73 74 5
73 101 1
74 75 5
74 102 5
75 76 2
75 103 3
76 77 5
76 104 1
77 78 5
77 105 5
78 79 2
78 106 4
79 80 4
79 107 2
80 81 1
80 108 3
81 82 1
81 109 2
82 83 3
82 110 3
83 84 1
83 111 4
84 112 4
85 86 2
85 113 2
86 87 5
86 114 1
87 88 3
87 115 3
88 89 5
88 116 4
89 90 5
89 117 2
90 91 4
90 118 4
91 92 5
91 119 5
92 93 4
92 120 4
93 94 3
93 121 4
94 95 3
94 122 2
95 96 2
95 123 2
96 97 3
96 124 3
97 98 5
97 125 2
98 99 4
98 126 5
99 100 3
99 127 2
100 101 2
100 128 1
101 102 1
101 129 5
102 103 4
102 130 5
103 104 3
103 131 3
104 105 1
104 132 2
105 106 4
105 133 5
106 107 3
106 134 4
107 108 3
107 135 3
108 109 3
108 136 4
109 110 3
109 137 1
110 111 5
110 138 4
111 112 2
111 139 1
112 140 3
113 114 5
113 141 4
114 115 4
114 142 5
115 116 5
115 143 1
116 117 3
116 144 3
117 118 2
117 145 3
118 119 5
118 146 3
119 120 1
119 147 5
120 121 2
120 148 4
121 122 3
121 149 3
122 123 4
122 150 5
123 124 1
123 151 4
124 125 1
124 152 3
125 126 2
125 153 4
126 127 5
126 154 4
127 128 1
127 155 4
128 129 4
128 156 4
129 130 4
129 157 1
130 131 5
130 158 1
131 132 5
131 159 2
132 133 5
132 160 5
133 134 1
133 161 4
134 135 5
134 162 4
135 136 1
135 163 1
136 137 1
136 164 4
137 138 2
137 165 4
138 139 4
138 166 5
139 140 1
139 167 1
140 168 1
141 142 1
141 169 5
142 143 5
142 170 1
143 144 5
143 171 2
144 145 2
144 172 3
145 146 4
145 173 1
146 147 1
146 174 4
147 148 4
147 175 2
148 149 1
148 176 4
149 150 4
149 177 1
150 151 4
150 178 5
151 152 3
151 179 2
152 153 4
152 180 5
153 154 4
153 181 2
154 155 3
154 182 4
155 156 1
155 183 5
156 157 2
156 184 2
157 158 2
157 185 1
158 159 2
158 186 4
159 160 1
159 187 4
160 161 4
160 188 2
161 162 1
161 189 1
162 163 1
162 190 4
163 164 4
163 191 5
164 165 3
164 192 5
165 166 5
165 193 2
166 167 5
166 194 1
167 168 5
167 195 5
168 196 4
169 170 2
169 197 2
170 171 4
170 198 3
171 172 2
171 199 1
172 173 2
172 200 4
173 174 2
173 201 2
174 175 3
174 202 5
175 176 3
175 203 2
176 177 5
176 204 4
177 178 3
177 205 3
178 179 5
178 206 4
179 180 2
179 207 2
180 181 3
180 208 3
181 182 2
181 209 3
182 183 5
182 210 5
183 184 2
183 211 1
184 185 5
184 212 2
185 186 4
185 213 4
186 187 4
186 214 2
187 188 1
187 215 2
188 189 2
188 216 2
189 190 1
189 217 1
190 191 4
190 218 2
191 192 4
191 219 4
192 193 5
192 220 5
193 194 1
193 221 4
194 195 4
194 222 3
195 196 3
195 223 1
196 224 4
197 198 4
197 225 4
198 199 4
198 226 4
199 200 1
199 227 5
200 201 5
200 228 5
201 202 4
201 229 5
202 203 2
202 230 2
203 204 2
203 231 5
204 205 1
204 232 4
205 206 4
205 233 1
206 207 4
206 234 2
207 208 2
207 235 3
208 209 2
208 236 1
209 210 5
209 237 1
210 211 1
210 238 3
211 212 3
211 239 1
212 213 1
212 240 3
213 214 4
213 241 4
214 215 4
214 242 2
215 216 5
215 243 4
216 217 4
216 244 1
217 218 2
217 245 1
218 219 4
218 246 3
219 220 4
219 247 5
220 221 2
220 248 1
221 222 3
221 249 1
222 223 1
222 250 2
223 224 5
223 251 4
224 252 2
225 226 5
225 253 4
226 227 1
226 254 2
227 228 1
227 255 5
228 229 2
228 256 4
229 230 5
229 257 4
230 231 3
230 258 2
231 232 3
231 259 5
232 233 5
232 260 3
233 234 2
233 261 5
234 235 3
234 262 3
235 236 2
235 263 1
236 237 5
236 264 2
237 238 2
237 265 3
238 239 4
238 266 4
239 240 4
239 267 4
240 241 4
240 268 3
241 242 4
241 269 4
242 243 1
242 270 4
243 244 4
243 271 1
244 245 4
244 272 2
245 246 1
245 273 5
246 247 4
246 274 4
247 248 4
247 275 1
248 249 3
248 276 3
249 250 4
249 277 2
250 251 5
250 278 3
251 252 5
251 279 1
252 280 5
253 254 5
253 281 4
254 255 2
254 282 1
255 256 4
255 283 2
256 257 1
256 284 4
257 258 5
257 285 4
258 259 1
258 286 5
259 260 4
259 287 2
260 261 5
260 288 3
261 262 3
261 289 2
262 263 4
262 290 2
263 264 3
263 291 2
264 265 3
264 292 1
265 266 4
265 293 4
266 267 5
266 294 4
267 268 2
267 295 5
268 269 3
268 296 1
269 270 2
269 297 4
270 271 4
270 298 2
271 272 1
271 299 3
272 273 1
272 300 2
273 274 1
273 301 3
274 275 4
274 302 4
275 276 2
275 303 2
276 277 1
276 304 3
277 278 1
277 305 1
278 279 1
278 306 3
279 280 3
279 307 2
280 308 4
281 282 3
281 309 4
282 283 1
282 310 3
283 284 3
283 311 5
284 285 5
284 312 4
285 286 2
285 313 5
286 287 5
286 314 3
287 288 4
287 315 3
288 289 1
288 316 1
289 290 3
289 317 4
290 291 3
290 318 2
291 292 5
291 319 1
292 293 2
292 320 4
293 294 2
293 321 4
294 295 3
294 322 2
295 296 3
295 323 5
296 297 3
296 324 3
297 298 3
297 325 3
298 299 2
298 326 4
299 300 4
299 327 2
300 301 4
300 328 4
301 302 2
301 329 4
302 303 1
302 330 3
303 304 5
303 331 1
304 305 2
304 332 1
305 306 2
305 333 1
306 307 1
306 334 1
307 308 5
307 335 5
308 336 5
309 310 4
309 337 1
310 311 5
310 338 2
311 312 2
311 339 5
312 313 5
312 340 4
313 314 3
313 341 3
314 315 1
314 342 2
315 316 3
315 343 4
316 317 1
316 344 1
317 318 5
317 345 4
318 319 4
318 346 2
319 320 4
319 347 5
320 321 1
320 348 3
321 322 2
321 349 5
322 323 4
322 350 2
323 324 3
323 351 3
324 325 5
324 352 1
325 326 1
325 353 4
326 327 1
326 354 5
327 328 3
327 355 5
328 329 1
328 356 5
329 330 4
329 357 1
330 331 5
330 358 4
331 332 1
331 359 5
332 333 5
332 360 2
333 334 5
333 361 1
334 335 5
334 362 4
335 336 2
335 363 2
336 364 3
337 338 1
337 365 3
338 339 4
338 366 2
339 340 2
339 367 2
340 341 2
340 368 5
341 342 2
341 369 1
342 343 2
342 370 1
343 344 1
343 371 2
344 345 5
344 372 5
345 346 3
345 373 3
346 347 5
346 374 3
347 348 1
347 375 2
348 349 1
348 376 3
349 350 3
349 377 4
350 351 2
350 378 1
351 352 5
351 379 2
352 353 2
352 380 1
353 354 2
353 381 5
354 355 3
354 382 5
355 356 1
355 383 5
356 357 5
356 384 3
357 358 5
357 385 1
358 359 4
358 386 3
359 360 3
359 387 3
360 361 1
360 388 5
361 362 2
361 389 3
362 363 3
362 390 1
363 364 4
363 391 5
364 392 1
365 366 5
365 393 1
366 367 5
366 394 2
367 368 3
367 395 5
368 369 3
368 396 3
369 370 4
369 397 5
370 371 1
370 398 4
371 372 1
371 399 2
372 373 1
372 400 1
373 374 1
373 401 2
374 375 2
374 402 5
375 376 4
375 403 2
376 377 5
376 404 2
377 378 1
377 405 4
378 379 4
378 406 1
379 380 4
379 407 5
380 381 5
380 408 1
381 382 4
381 409 2
382 383 1
382 410 1
383 384 2
383 411 3
384 385 4
384 412 2
385 386 5
385 413 2
386 387 5
386 414 1
387 388 1
387 415 1
388 389 2
388 416 4
389 390 2
389 417 1
390 391 1
390 418 3
391 392 5
391 419 2
392 420 1
393 394 2
393 421 4
394 395 2
394 422 1
395 396 5
395 423 3
396 397 5
396 424 2
397 398 3
397 425 5
398 399 1
398 426 1
399 400 5
399 427 4
400 401 5
400 428 1
401 402 1
401 429 2
402 403 4
402 430 1
403 404 3
403 431 3
404 405 5
404 432 5
405 406 1
405 433 5
406 407 4
406 434 1
407 408 2
407 435 3
408 409 2
408 436 5
409 410 5
409 437 4
410 411 3
410 438 3
411 412 2
411 439 1
412 413 5
412 440 1
413 414 3
413 441 5
414 415 3
414 442 2
415 416 3
415 443 5
416 417 3
416 444 5
417 418 3
417 445 2
418 419 4
418 446 5
419 420 2
419 447 2
420 448 2
421 422 3
421 449 3
422 423 5
422 450 4
423 424 5
423 451 4
424 425 1
424 452 4
425 426 5
425 453 4
426 427 4
426 454 2
427 428 3
427 455 4
428 429 1
428 456 3
429 430 4
429 457 4
430 431 3
430 458 4
431 432 2
431 459 2
432 433 1
432 460 2
433 434 5
433 461 5
434 435 4
434 462 5
435 436 3
435 463 3
436 437 1
436 464 3
437 438 1
437 465 1
438 439 2
438 466 1
439 440 4
439 467 5
440 441 4
440 468 5
441 442 3
441 469 1
442 443 4
442 470 4
443 444 4
443 471 1
444 445 4
444 472 3
445 446 4
445 473 1
446 447 4
446 474 5
447 448 4
447 475 5
448 476 4
449 450 3
449 477 4
450 451 2
450 478 4
451 452 5
451 479 5
452 453 2
452 480 4
453 454 4
453 481 1
454 455 5
454 482 4
455 456 2
455 483 5
456 457 3
456 484 4
457 458 3
457 485 5
458 459 1
458 486 4
459 460 5
459 487 4
460 461 4
460 488 2
461 462 3
461 489 2
462 463 5
462 490 2
463 464 5
463 491 1
464 465 5
464 492 3
465 466 4
465 493 2
466 467 2
466 494 1
467 468 5
467 495 5
468 469 4
468 496 3
469 470 2
469 497 2
470 471 2
470 498 3
471 472 3
471 499 4
472 473 5
472 500 3
473 474 3
473 501 4
474 475 3
474 502 4
475 476 2
475 503 3
476 504 3
477 478 5
477 505 4
478 479 2
478 506 4
479 480 3
479 507 2
480 481 4
480 508 2
481 482 1
481 509 2
482 483 2
482 510 2
483 484 1
483 511 5
484 485 5
484 512 1
485 486 1
485 513 4
486 487 5
486 514 4
487 488 3
487 515 4
488 489 5
488 516 5
489 490 4
489 517 2
490 491 5
490 518 1
491 492 3
491 519 3
492 493 5
492 520 5
493 494 2
493 521 5
494 495 4
494 522 2
495 496 4
495 523 2
496 497 4
496 524 5
497 498 2
497 525 5
498 499 5
498 526 1
499 500 3
499 527 2
500 501 4
500 528 2
501 502 5
501 529 3
502 503 3
502 530 5
503 504 2
503 531 4
504 532 3
505 506 2
505 533 1
506 507 4
506 534 4
507 508 1
507 535 3
508 509 2
508 536 5
509 510 1
509 537 3
510 511 2
510 538 3
511 512 1
511 539 2
512 513 5
512 540 2
513 514 4
513 541 3
514 515 3
514 542 3
515 516 5
515 543 5
516 517 3
516 544 2
517 518 2
517 545 4
518 519 5
518 546 4
519 520 5
519 547 3
520 521 3
520 548 1
521 522 4
521 549 5
522 523 2
522 550 5
523 524 3
523 551 4
524 525 2
524 552 2
525 526 5
525 553 3
526 527 3
526 554 3
527 528 2
527 555 3
528 529 1
528 556 3
529 530 4
529 557 5
530 531 1
530 558 2
531 532 2
531 559 1
532 560 3
533 534 1
533 561 2
534 535 4
534 562 1
535 536 2
535 563 3
536 537 5
536 564 4
537 538 1
537 565 1
538 539 3
538 566 5
539 540 1
539 567 4
540 541 4
540 568 2
541 542 4
541 569 3
542 543 3
542 570 4
543 544 3
543 571 1
544 545 2
544 572 4
545 546 5
545 573 3
546 547 3
546 574 5
547 548 4
547 575 3
548 549 4
548 576 1
549 550 3
549 577 1
550 551 4
550 578 3
551 552 1
551 579 1
552 553 4
552 580 3
553 554 1
553 581 4
554 555 2
554 582 2
555 556 2
555 583 3
556 557 2
556 584 5
557 558 4
557 585 5
558 559 3
558 586 5
559 560 5
559 587 5
560 588 4
561 562 1
561 589 4
562 563 3
562 590 4
563 564 4
563 591 1
564 565 5
564 592 4
565 566 3
565 593 1
566 567 1
566 594 4
567 568 4
567 595 5
568 569 5
568 596 3
569 570 3
569 597 3
570 571 1
570 598 2
571 572 4
571 599 5
572 573 5
572 600 5
573 574 4
573 601 4
574 575 4
574 602 1
575 576 1
575 603 5
576 577 3
576 604 3
577 578 1
577 605 5
578 579 4
578 606 3
579 580 3
579 607 1
580 581 3
580 608 5
581 582 2
581 609 3
582 583 4
582 610 4
583 584 2
583 611 1
584 585 3
584 612 2
585 586 3
585 613 1
586 587 4
586 614 2
587 588 4
587 615 1
588 616 2
589 590 1
589 617 1
590 591 5
590 618 1
591 592 1
591 619 1
592 593 4
592 620 1
593 594 4
593 621 3
594 595 4
594 622 3
595 596 3
595 623 5
596 597 2
596 624 4
597 598 4
597 625 2
598 599 2
598 626 2
599 600 3
599 627 3
600 601 5
600 628 5
601 602 5
601 629 2
602 603 4
602 630 5
603 604 1
603 631 3
604 605 5
604 632 3
605 606 4
605 633 4
606 607 4
606 634 5
607 608 3
607 635 5
608 609 5
608 636 5
609 610 3
609 637 4
610 611 2
610 638 1
611 612 4
611 639 5
612 613 3
612 640 3
613 614 3
613 641 2
614 615 3
614 642 3
615 616 2
615 643 1
616 644 5
617 618 3
617 645 5
618 619 5
618 646 5
619 620 3
619 647 3
620 621 4
620 648 5
621 622 1
621 649 4
622 623 2
622 650 5
623 624 4
623 651 2
624 625 5
624 652 3
625 626 3
625 653 4
626 627 4
626 654 2
627 628 2
627 655 5
628 629 4
628 656 5
629 630 3
629 657 4
630 631 4
630 658 5
631 632 5
631 659 3
632 633 5
632 660 4
633 634 5
633 661 5
634 635 3
634 662 4
635 636 2
635 663 5
636 637 3
636 664 5
637 638 5
637 665 3
638 639 4
638 666 5
639 640 1
639 667 2
640 641 2
640 668 2
641 642 2
641 669 3
642 643 3
642 670 5
643 644 5
643 671 2
644 672 1
645 646 2
645 673 2
646 647 5
646 674 1
647 648 2
647 675 1
648 649 4
648 676 4
649 650 5
649 677 5
650 651 1
650 678 4
651 652 5
651 679 4
652 653 1
652 680 4
653 654 2
653 681 2
654 655 1
654 682 5
655 656 3
655 683 4
656 657 3
656 684 3
657 658 5
657 685 1
658 659 3
658 686 4
659 660 4
659 687 4
660 661 4
660 688 3
661 662 2
661 689 5
662 663 5
662 690 5
663 664 3
663 691 5
664 665 2
664 692 1
665 666 5
665 693 1
666 667 5
666 694 3
667 668 3
667 695 5
668 669 4
668 696 1
669 670 5
669 697 5
670 671 1
670 698 2
671 672 4
671 699 1
672 700 5
673 674 5
673 701 1
674 675 4
674 702 2
675 676 5
675 703 2
676 677 4
676 704 2
677 678 2
677 705 1
678 679 5
678 706 1
679 680 4
679 707 5
680 681 5
680 708 3
681 682 5
681 709 3
682 683 1
682 710 2
683 684 4
683 711 2
684 685 3
684 712 1
685 686 2
685 713 5
686 687 4
686 714 2
687 688 1
687 715 4
688 689 3
688 716 3
689 690 3
689 717 5
690 691 4
690 718 3
691 692 3
691 719 5
692 693 4
692 720 3
693 694 2
693 721 3
694 695 5
694 722 1
695 696 5
695 723 3
696 697 4
696 724 5
697 698 4
697 725 1
698 699 4
698 726 2
699 700 1
699 727 4
700 728 4
701 702 4
701 729 3
702 703 1
702 730 2
703 704 3
703 731 2
704 705 5
704 732 1
705 706 5
705 733 2
706 707 2
706 734 3
707 708 1
707 735 1
708 709 1
708 736 3
709 710 5
709 737 1
710 711 1
710 738 2
711 712 2
711 739 4
712 713 2
712 740 4
713 714 3
713 741 3
714 715 4
714 742 3
715 716 1
715 743 5
716 717 4
716 744 5
717 718 5
717 745 3
718 719 1
718 746 3
719 720 1
719 747 5
720 721 1
720 748 5
721 722 4
721 749 4
722 723 1
722 750 4
723 724 3
723 751 1
724 725 3
724 752 5
725 726 3
725 753 5
726 727 1
726 754 1
727 728 5
727 755 1
728 756 3
729 730 2
729 757 1
730 731 5
730 758 5
731 732 2
731 759 2
732 733 3
732 760 3
733 734 4
733 761 3
734 735 4
734 762 4
735 736 4
735 763 4
736 737 3
736 764 2
737 738 2
737 765 2
738 739 2
738 766 3
739 740 1
739 767 4
740 741 4
740 768 1
741 742 5
741 769 4
742 743 3
742 770 5
743 744 2
743 771 2
744 745 4
744 772 3
745 746 1
745 773 1
746 747 3
746 774 4
747 748 5
747 775 1
748 749 1
748 776 5
749 750 2
749 777 1
750 751 4
750 778 2
751 752 1
751 779 4
752 753 4
752 780 5
753 754 5
753 781 4
754 755 1
754 782 3
755 756 2
755 783 5
756 784 4
757 758 3
758 759 2
759 760 5
760 761 2
761 762 2
762 763 1
763 764 4
764 765 3
765 766 4
766 767 2
767 768 4
768 769 4
769 770 5
770 771 4
771 772 2
772 773 3
773 774 4
774 775 3
775 776 2
776 777 3
777 778 4
778 779 4
779 780 3
780 781 4
781 782 5
782 783 2
783 784 3
1 757 2
2 758 4
3 759 4
4 760 1
5 761 5
6 762 4
7 763 1
8 764 1
9 765 4
10 766 3
11 767 4
12 768 4
13 769 2
14 770 2
15 771 2
16 772 2
17 773 5
18 774 5
19 775 4
20 776 2
21 777 5
22 778 5
23 779 3
24 780 2
25 781 1
26 782 4
27 783 4
28 784 5
1 28 2
29 56 2
57 84 4
85 112 1
113 140 5
141 168 5
169 196 1
197 224 3
225 252 2
253 280 2
281 308 5
309 336 2
337 364 4
365 392 3
393 420 4
421 448 3
449 476 1
477 504 2
505 532 3
533 560 2
561 588 1
589 616 1
617 644 1
645 672 4
673 700 4
701 728 1
729 756 1
757 784 1
